c WARNING: for repeatability, setting FPU to use double precision
d VARIABLES            138850       
d CONSTRAINTS          504540       
c ============================[ Problem Statistics ]=============================
c |                                                                             |
c |  Number of variables:        138850                                         |
c |  Number of clauses:          504540                                         |
c |  Parse time:                   0.08 s                                       |
c |                                                                             |
c ============================[ Search Statistics ]==============================
c | Conflicts |          ORIGINAL         |          LEARNT          | Progress |
c |           |    Vars  Clauses Literals |    Limit  Clauses Lit/Cl |          |
c ===============================================================================
c |       100 |  108670   426318  1071707 |   156316      100      9 | 21.736 % |
c |       250 |  108670   426318  1071707 |   171948      250     16 | 21.736 % |
c |       475 |  108670   426318  1071707 |   189143      475     11 | 21.736 % |
c |       812 |  108670   426318  1071707 |   208057      812     31 | 21.736 % |
c |      1318 |  108670   426318  1071707 |   228863     1318     22 | 21.736 % |
c |      2077 |  108670   426318  1071707 |   251749     2077     19 | 21.736 % |
c |      3216 |  108670   426318  1071707 |   276924     3216     44 | 21.736 % |
c |      4924 |  108670   426318  1071707 |   304616     4924     55 | 21.736 % |
c |      7486 |  108670   426318  1071707 |   335078     7486     87 | 21.736 % |
c |     11330 |  108670   426318  1071707 |   368586    11330    104 | 21.736 % |
c |     17096 |  108670   426318  1071707 |   405445    17096     80 | 21.736 % |
c |     25745 |  108668   426302  1071671 |   445989    25741     76 | 21.737 % |
c |     38719 |  108667   426294  1071653 |   490588    38714     95 | 21.738 % |
c |     58180 |  108666   426286  1071635 |   539647    58170    105 | 21.739 % |
c |     87372 |  108657   426238  1071527 |   593612    87339    110 | 21.745 % |
c |    131161 |  108653   426186  1071409 |   652973   131111     96 | 21.748 % |
c |    196845 |  108644   426130  1071281 |   718270   196760     78 | 21.754 % |
c |    295371 |  108561   425862  1070617 |   790097   295255     60 | 21.814 % |
c ===============================================================================
c restarts              : 1021
c conflicts             : 431962         (4769 /sec)
c decisions             : 1480881        (0.00 % random) (16349 /sec)
c propagations          : 385724942      (4258500 /sec)
c conflict literals     : 20386244       (29.02 % deleted)
d RESTARTS             1021
d FAILURES             431962       
d NODES                1480881      
d BACKTRACKS           1480881      
d PROPAGATIONS         385724942    
d NOGOODSIZE           47.19 
d MEMORY               184.00 
d TIME                 90.5777 

s UNSATISFIABLE
